%chk=glycine.chk
# hf/6-31g(d) nosymm prop=(potential,grid,fitcharge) charge scf=tight

glycine

   0   1
 N            0.85600000   -1.16900000    0.00000000
 H            1.81600000   -0.85600000    0.00000000
 C            0.00000000    0.00000000    0.00000000
 H            0.66700000   -1.63800000   -0.87500000
 H            0.66700000   -1.63800000    0.87500000
 C            0.83800000    1.27100000    0.00000000
 H           -0.62900000   -0.01000000   -0.89000000
 H           -0.62900000   -0.01000000    0.89000000
 O            2.09400000    1.19600000    0.00000000
 O            0.19800000    2.54900000    0.00000000

