%chk=glycine.chk
# hf/6-31g(d) nosymm geom=connectivity prop=(potential,grid,fitcharge) charge scf=tight

Glycine

0 1
 N                  0.85574373   -1.16931720    0.00000000
 H                  1.81577633   -0.85556984    0.00000000
 C                  0.00000000    0.00000000    0.00000000
 H                  0.66736703   -1.63786714   -0.87468600
 H                  0.66736703   -1.63786714    0.87468600
 C                  0.83787925    1.27060798    0.00000000
 H                 -0.62945942   -0.00978180   -0.88982300
 H                 -0.62945942   -0.00978180    0.88982300
 O                  2.09406193    1.19593025    0.00000000
 O                  0.19763128    2.54927233    0.00000000

 1 2 1.0 3 1.0 4 1.0 5 1.0
 2
 3 6 1.0 7 1.0 8 1.0
 4
 5
 6 9 2.0 10 1.0
 7
 8
 9
 10

10.0  10.0  10.0  0.00

262144, 3, 10, 11

